19 20
25 5 2
5 26 1
30 8 1
15 30 1
34 34 1
25 21 1
30 20 1
22 27 1
20 15 1
20 3 1
30 22 1
34 10 1
29 22 1
22 19 1
33 8 1
23 9 1
34 18 1
16 8 1
1 33 1
40 40 
40 40 
40 40 
40 40 
40 40 
40 40 
40 40 
40 40 
40 40 
40 40 
40 40 
40 40 
40 40 
40 40 
40 40 
40 40 
40 40 
40 40 
40 40 
40 40 
